WARNING: for repeatability, setting FPU to use double precision
============================[ Problem Statistics ]=============================
|                                                                             |
|  Number of symmetries:          37                                          |
|  Number of invertingSyms:        0                                          |
|  Number of variables:           380                                         |
|  Number of clauses:            3630                                         |
|  Parse time:                   0.00 s                                       |
|                                                                             |
============================[ Search Statistics ]==============================
| Conflicts |          ORIGINAL         |          LEARNT          | Progress |
|           |    Vars  Clauses Literals |    Limit  Clauses Lit/Cl |          |
===============================================================================
|       100 |     380     3630     7600 |     1331      107    151 |  0.001 % |
|       250 |     380     3630     7600 |     1464      306    111 |  0.001 % |
|       475 |     380     3630     7600 |     1610      623    114 |  0.001 % |
|       812 |     380     3630     7600 |     1771     1085    106 |  0.001 % |
|      1318 |     380     3630     7600 |     1948     1132     92 |  0.001 % |
|      2077 |     380     3630     7600 |     2143     1155    100 |  0.001 % |
|      3216 |     380     3630     7600 |     2357     1460     90 |  0.001 % |
|      4924 |     380     3630     7600 |     2593     1725     88 |  0.001 % |
|      7486 |     380     3630     7600 |     2853     2188    126 |  0.001 % |
|     11330 |     380     3630     7600 |     3138     2075     97 |  0.001 % |
|     17096 |     380     3630     7600 |     3452     2965    144 |  0.001 % |
|     25745 |     380     3630     7600 |     3797     1791    152 |  0.001 % |
|     38719 |     380     3630     7600 |     4177     2142    158 |  0.001 % |
|     58180 |     380     3630     7600 |     4594     2406    147 |  0.001 % |
|     87372 |     380     3630     7600 |     5054     3478    153 |  0.001 % |
|    131161 |     380     3630     7600 |     5559     2905    140 |  0.001 % |
|    196845 |     380     3630     7600 |     6115     3247    137 |  0.001 % |
|    295371 |     380     3630     7600 |     6727     5058    148 |  0.001 % |
|    443160 |     380     3630     7600 |     7400     4093    152 |  0.001 % |
|    664843 |     380     3630     7600 |     8140     7426    166 |  0.001 % |
|    997368 |     380     3630     7600 |     8954     7680    139 |  0.001 % |
|   1496156 |     380     3630     7600 |     9849     6106    156 |  0.001 % |
|   2244338 |     380     3630     7600 |    10834     7438    184 |  0.001 % |
|   3366612 |     380     3630     7600 |    11918     7602    129 |  0.001 % |
|   5050023 |     380     3630     7600 |    13109     7364    158 |  0.001 % |
|   7575139 |     380     3630     7600 |    14420    11838    175 |  0.001 % |
|  11362814 |     380     3630     7600 |    15863    14025    150 |  0.001 % |
|  17044326 |     380     3630     7600 |    17449    11438    149 |  0.001 % |
|  25566595 |     380     3630     7600 |    19194    12025    153 |  0.001 % |
|  38349998 |     380     3630     7600 |    21113    18017    127 |  0.001 % |
===============================================================================
restarts              : 60921
conflicts             : 43267536       (8512 /sec)
symconflicts          : 3245160        (638 /sec)
decisions             : 69746366       (0.00 % random) (13721 /sec)
propagations          : 928080767      (182582 /sec)
sympropagations       : 18917311       (3722 /sec)
conflict literals     : 6674226824     (7.13 % deleted)
Memory used           : 109.00 MB
CPU time              : 5083.09 s

INDETERMINATE
